NAME : auto_generated
COMMENT : Automatically generated TSP instance
TYPE : TSP
DIMENSION : 25
EDGE_WEIGHT_TYPE : EUC_2D
NODE_COORD_SECTION
1 6 38
2 75 40
3 59 10
4 69 59
5 59 88
6 56 59
7 4 50
8 73 52
9 70 12
10 9 9
11 33 22
12 73 17
13 86 27
14 61 26
15 27 11
16 86 98
17 88 51
18 55 66
19 33 18
20 14 46
21 44 3
22 80 44
23 4 74
24 11 25
25 50 71
EOF
